Instance0
CPXPARAM_MIP_Cuts_MIRCut 0
Instance1
CPXPARAM_MIP_Cuts_MIRCut 0
Instance2
CPXPARAM_MIP_Cuts_MIRCut 0
Instance3
CPXPARAM_MIP_Cuts_MIRCut 0
Instance4
CPXPARAM_MIP_Cuts_MIRCut 0
Instance5
CPXPARAM_MIP_Cuts_MIRCut 0
Instance6
CPXPARAM_MIP_Cuts_MIRCut 0
Instance7
CPXPARAM_MIP_Cuts_MIRCut 0
Instance8
CPXPARAM_MIP_Cuts_MIRCut 0
Instance9
CPXPARAM_MIP_Cuts_MIRCut 0
Instance10
CPXPARAM_MIP_Cuts_MIRCut 0
Instance11
CPXPARAM_MIP_Cuts_MIRCut 0
Instance12
CPXPARAM_MIP_Cuts_MIRCut 0
Instance13
CPXPARAM_MIP_Cuts_MIRCut 0
Instance14
CPXPARAM_MIP_Cuts_MIRCut 0
Instance15
CPXPARAM_MIP_Cuts_MIRCut 0
Instance16
CPXPARAM_MIP_Cuts_MIRCut 0
Instance17
CPXPARAM_MIP_Cuts_MIRCut 0
Instance18
CPXPARAM_MIP_Cuts_MIRCut 0
Instance19
CPXPARAM_MIP_Cuts_MIRCut 0
Instance20
CPXPARAM_MIP_Cuts_MIRCut 0
Instance21
CPXPARAM_MIP_Cuts_MIRCut 0
Instance22
CPXPARAM_MIP_Cuts_MIRCut 0
Instance23
CPXPARAM_MIP_Cuts_MIRCut 0
Instance24
CPXPARAM_MIP_Cuts_MIRCut 0
Instance25
CPXPARAM_MIP_Cuts_MIRCut 0
Instance26
CPXPARAM_MIP_Cuts_MIRCut 0
Instance27
CPXPARAM_MIP_Cuts_MIRCut 0
Instance28
CPXPARAM_MIP_Cuts_MIRCut 0
Instance29
CPXPARAM_MIP_Cuts_MIRCut 0
Instance30
CPXPARAM_MIP_Cuts_MIRCut 0
Instance31
CPXPARAM_MIP_Cuts_MIRCut 0
Instance32
CPXPARAM_MIP_Cuts_MIRCut 0
Instance33
CPXPARAM_MIP_Cuts_MIRCut 0
Instance34
CPXPARAM_MIP_Cuts_MIRCut 0
Instance35
CPXPARAM_MIP_Cuts_MIRCut 0
Instance36
CPXPARAM_MIP_Cuts_MIRCut 0
Instance37
CPXPARAM_MIP_Cuts_MIRCut 0
Instance38
CPXPARAM_MIP_Cuts_MIRCut 0
Instance39
CPXPARAM_MIP_Cuts_MIRCut 0
